3118 2969 2828 2758 2630 2551 2505 2452 2362 2313 2256 2148 2106 2030 2031 2029 2001 1946 1989 1938 1976 1862 1872 1831 1816 1790 1772 1729 1689 1645 1617 1607 1594 1586 1562 1532 1517 1480 1459 1441 1416 1409 1392 1387 1380 1369 1359 1349 1341 1333 1324 1312 1295 1292 1277 1268 1253 1245 1240 1236 1231 1227 1222 1217 1214 1210 1207 1200 1195 1193 1188 1180 1173 1167 1165 1156 1151 1147 1137 1135 1127 1125 1122 1118 1112 1108 1104 1099 1099 1097 1094 1093 1086 1085 1082 1077 1075 1073 1069 1065 1058 1055 1053 1050 1046 1042 1041 1037 1035 1035 1033 1033 1032 1031 1023 1016 1016 1014 1014 1012 1010 1008 1008 1007 1005 1005 1003 1002 1000 999 998 998 997 996 994 993 992 991 991 991 990 990 988 988 988 987 986 986 985 985 985 984 979 977 977 975 975 974 973 972 972 967 967 967 967 966 966 966 966 966 966 963 963 963 962 962 961 960 960 960 960 960 956 956 956 953 951 950 950 950 939 938 937 937 937 935 935 935 934 934 934 932 932 925 925 925 925 925 924 924 924 915 913 913 899 896 895 887 886 885 885 885 885 885 884 884 883 882 882 882 882 879 879 879 879 879 876 876 876 875 874 874 874 873 873 872 872 872 872 872 872 872 872 870 870 868 867 866 866 866 866 865 865 865 865 865 865 863 861 858 858 858 858 858 858 858 858 857 857 857 856 856 856 856 855 855 855 855 854 854 854 854 852 852 852 852 852 852 852 844 844 844 844 844 843 842 841 841 841 841 841 841 841 840 839 839 839 839 839 839 839 839 839 837 837 834 834 834 834 834 834 834 834 834 833 833 833 833 833 833 833 833 833 833 833 833 833 833 833 833 833 833 833 833 833 833 833 833 833 833 833 833 833 833 833 833 833 833 833 833 833 833 833 833 833 833 833 833 833 833 833 833 833 833 833 833 833 833 833 833 833 833 833 833 833 833 833 833 833 833 833 833 833 833 833 833 833 833 833 833 833 833 833 833 833 833 833 833 833 833 833 833 833 833 833 833 833 833 833 833 833 833 833 833 833 833 833 833 833 833 833 833 833 833 833 833 833 833 833 833 833 833 833 833 833 833 833 833 833 833 833 833 833 833 833 833 833 833 833 833 833 833 833 833 833 833 833 833 833 833 833 833 833 833 833 833 833 833 833 833 833 833 833 833 833 833 833 833 833 833 833 833 833 833 833 833 833 833 833 833 833 833 833 833 833 833 833 833 833 833 833 833 833 833 833 833 833 833 833 833 833 833 833 833 833 833 833 833 833 833 833 833 833 833 833 833 833 833 833 833 833 833 833 833 833 833 833 833 833 833 833 833 833 833 833 833 833 833 833 833 833 833 833 833 833 833 833 833 833 833 833 833 833 833 833 833 833 833 833 833 833 833 833 833 833 833 833 833 833 833 833 833 833 833 833 833 833 833 833 833 833 833 833 833 833 833 833 833 833 833 833 833 833 833 833 833 833 833 833 833 833 833 833 833 833 833 833 833 833 833 833 833 833 833 833 833 833 833 833 833 833 833 833 833 833 833 833 833 833 833 833 833 833 833 833 833 833 833 833 833 833 833 833 833 833 833 833 833 833 833 833 833 833 833 833 833 833 833 833 833 833 833 833 833 833 833 833 833 833 833 833 833 833 833 831 831 831 831 831 831 831 831 831 831 831 831 831 831 831 831 831 831 831 830 830 830 830 826 826 826 826 826 825 825 825 825 825 825 825 825 825 825 825 824 824 824 824 824 823 823 823 823 823 823 823 817 816 816 816 816 816 816 816 816 816 816 816 816 816 816 816 816 816 816 816 816 816 816 816 816 816 816 816 816 816 816 816 816 816 816 816 816 816 816 816 816 816 816 816 816 816 816 816 816 816 816 816 816 816 816 816 816 816 816 816 816 816 816 816 816 816 816 816 816 816 816 816 816 816 816 816 816 816 816 816 816 816 816 816 816 816 816 816 816 816 816 816 816 816 816 816 816 816 816 816 816 816 816 816 816 816 816 816 816 816 816 816 816 816 816 816 816 816 816 816 816 816 816 816 816 816 816 816 816 816 816 816 816 816 816 816 816 816 816 816 816 816 816 816 816 816 816 816 816 816 816 816 816 816 816 816 816 816 816 816 816 816 816 816 816 816 816 816 816 816 816 816 816 816 816 816 816 816 816 816 816 816 816 816 816 816 816 816 816 816 816 816 816 816 816 816 816 816 816 816 816 816 816 816 816 816 816 816 816 816 816 816 816 816 816 816 816 816 816 816 816 816 816 816 816 816 816 816 816 816 816 816 816 816 816 816 816 816 816 816 816 816 816 816 816 816 816 816 816 816 816 816 816 816 816 816 816 816 816 816 816 816 816 816 816 816 816 816 816 816 816 816 816 816 816 816 816 816 816 816 816 816 816 816 816 816 816 816 816 816 816 816 816 816 816 816 816 816 816 816 816 816 816 816 816 816 816 816 816 816 816 816 816 816 816 816 816 816 816 816 816 816 816 816 816 816 816 816 816 816 816 816 816 816 816 816 816 816 816 816 816 816 816 816 816 816 816 816 816 816 816 816 816 816 816 816 816 816 816 816 816 816 816 816 816 816 816 816 816 816 816 816 816 816 816 816 816 816 816 816 816 816 816 816 816 816 816 816 816 816 816 816 816 816 816 816 816 816 816 816 816 816 816 816 816 816 816 816 816 816 816 816 816 816 816 816 816 816 816 816 816 816 816 816 816 816 816 816 816 816 816 816 816 816 816 816 816 816 816 816 816 816 816 816 816 816 816 816 816 816 816 816 816 816 816 816 816 816 816 816 816 816 816 816 816 816 816 816 816 816 816 816 816 816 816 816 816 816 816 816 816 816 816 816 816 816 816 816 816 816 816 816 816 816 816 816 816 816 816 816 816 816 
1118 969 828 758 639 559 524 457 362 318 266 184 151 93 88 69 51 32 25 19 10 1 0 0 0 0 0 0 0 0 0 0 0 0 0 0 0 0 0 0 0 0 0 0 0 0 0 0 0 0 0 0 0 0 0 0 0 0 0 0 0 0 0 0 0 0 0 0 0 0 0 0 0 0 0 0 0 0 0 0 0 0 0 0 0 0 0 0 0 0 0 0 0 0 0 0 0 0 0 0 0 0 0 0 0 0 0 0 0 0 0 0 0 0 0 0 0 0 0 0 0 0 0 0 0 0 0 0 0 0 0 0 0 0 0 0 0 0 0 0 0 0 0 0 0 0 0 0 0 0 0 0 0 0 0 0 0 0 0 0 0 0 0 0 0 0 0 0 0 0 0 0 0 0 0 0 0 0 0 0 0 0 0 0 0 0 0 0 0 0 0 0 0 0 0 0 0 0 0 0 0 0 0 0 0 0 0 0 0 0 0 0 0 0 0 0 0 0 0 0 0 0 0 0 0 0 0 0 0 0 0 0 0 0 0 0 0 0 0 0 0 0 0 0 0 0 0 0 0 0 0 0 0 0 0 0 0 0 0 0 0 0 0 0 0 0 0 0 0 0 0 0 0 0 0 0 0 0 0 0 0 0 0 0 0 0 0 0 0 0 0 0 0 0 0 0 0 0 0 0 0 0 0 0 0 0 0 0 0 0 0 0 0 0 0 0 0 0 0 0 0 0 0 0 0 0 0 0 0 0 0 0 0 0 0 0 0 0 0 0 0 0 0 0 0 0 0 0 0 0 0 0 0 0 0 0 0 0 0 0 0 0 0 0 0 0 0 0 0 0 0 0 0 0 0 0 0 0 0 0 0 0 0 0 0 0 0 0 0 0 0 0 0 0 0 0 0 0 0 0 0 0 0 0 0 0 0 0 0 0 0 0 0 0 0 0 0 0 0 0 0 0 0 0 0 0 0 0 0 0 0 0 0 0 0 0 0 0 0 0 0 0 0 0 0 0 0 0 0 0 0 0 0 0 0 0 0 0 0 0 0 0 0 0 0 0 0 0 0 0 0 0 0 0 0 0 0 0 0 0 0 0 0 0 0 0 0 0 0 0 0 0 0 0 0 0 0 0 0 0 0 0 0 0 0 0 0 0 0 0 0 0 0 0 0 0 0 0 0 0 0 0 0 0 0 0 0 0 0 0 0 0 0 0 0 0 0 0 0 0 0 0 0 0 0 0 0 0 0 0 0 0 0 0 0 0 0 0 0 0 0 0 0 0 0 0 0 0 0 0 0 0 0 0 0 0 0 0 0 0 0 0 0 0 0 0 0 0 0 0 0 0 0 0 0 0 0 0 0 0 0 0 0 0 0 0 0 0 0 0 0 0 0 0 0 0 0 0 0 0 0 0 0 0 0 0 0 0 0 0 0 0 0 0 0 0 0 0 0 0 0 0 0 0 0 0 0 0 0 0 0 0 0 0 0 0 0 0 0 0 0 0 0 0 0 0 0 0 0 0 0 0 0 0 0 0 0 0 0 0 0 0 0 0 0 0 0 0 0 0 0 0 0 0 0 0 0 0 0 0 0 0 0 0 0 0 0 0 0 0 0 0 0 0 0 0 0 0 0 0 0 0 0 0 0 0 0 0 0 0 0 0 0 0 0 0 0 0 0 0 0 0 0 0 0 0 0 0 0 0 0 0 0 0 0 0 0 0 0 0 0 0 0 0 0 0 0 0 0 0 0 0 0 0 0 0 0 0 0 0 0 0 0 0 0 0 0 0 0 0 0 0 0 0 0 0 0 0 0 0 0 0 0 0 0 0 0 0 0 0 0 0 0 0 0 0 0 0 0 0 0 0 0 0 0 0 0 0 0 0 0 0 0 0 0 0 0 0 0 0 0 0 0 0 0 0 0 0 0 0 0 0 0 0 0 0 0 0 0 0 0 0 0 0 0 0 0 0 0 0 0 0 0 0 0 0 0 0 0 0 0 0 0 0 0 0 0 0 0 0 0 0 0 0 0 0 0 0 0 0 0 0 0 0 0 0 0 0 0 0 0 0 0 0 0 0 0 0 0 0 0 0 0 0 0 0 0 0 0 0 0 0 0 0 0 0 0 0 0 0 0 0 0 0 0 0 0 0 0 0 0 0 0 0 0 0 0 0 0 0 0 0 0 0 0 0 0 0 0 0 0 0 0 0 0 0 0 0 0 0 0 0 0 0 0 0 0 0 0 0 0 0 0 0 0 0 0 0 0 0 0 0 0 0 0 0 0 0 0 0 0 0 0 0 0 0 0 0 0 0 0 0 0 0 0 0 0 0 0 0 0 0 0 0 0 0 0 0 0 0 0 0 0 0 0 0 0 0 0 0 0 0 0 0 0 0 0 0 0 0 0 0 0 0 0 0 0 0 0 0 0 0 0 0 0 0 0 0 0 0 0 0 0 0 0 0 0 0 0 0 0 0 0 0 0 0 0 0 0 0 0 0 0 0 0 0 0 0 0 0 0 0 0 0 0 0 0 0 0 0 0 0 0 0 0 0 0 0 0 0 0 0 0 0 0 0 0 0 0 0 0 0 0 0 0 0 0 0 0 0 0 0 0 0 0 0 0 0 0 0 0 0 0 0 0 0 0 0 0 0 0 0 0 0 0 0 0 0 0 0 0 0 0 0 0 0 0 0 0 0 0 0 0 0 0 0 0 0 0 0 0 0 0 0 0 0 0 0 0 0 0 0 0 0 0 0 0 0 0 0 0 0 0 0 0 0 0 0 0 0 0 0 0 0 0 0 0 0 0 0 0 0 0 0 0 0 0 0 0 0 0 0 0 0 0 0 0 